c turning on binary mode checking
c parsing input formula with 259840 variables and 1039924 clauses
c finished parsing, read 2827921 bytes from proof file
c detected empty clause; start verification via backward checking
c 2144 of 1039924 clauses in core                            
c 613 of 115353 lemmas in core using 13047 resolution steps
c 0 RAT lemmas in core; 57 redundant literals in core lemmas
s VERIFIED
c verification time: 1.187 seconds
